; PUSH cw_2 SWAP1 DUP3 ADD DUP2 SWAP1 => DUP2 ADD PUSH cw_2 PUSH cw_2 SWAP2
(set-option :produce-proofs true)
; 
(set-info :status unknown)
(declare-fun storage_t ((_ BitVec 256) (_ BitVec 256) (_ BitVec 256) Int (_ BitVec 256)) (_ BitVec 256))
(declare-fun w_2 () (_ BitVec 256))
(declare-fun storage_s ((_ BitVec 256) (_ BitVec 256) (_ BitVec 256) Int (_ BitVec 256)) (_ BitVec 256))
(declare-fun exc_halt_t (Int) Bool)
(declare-fun exc_halt_s (Int) Bool)
(declare-fun sc_t (Int) (_ BitVec 6))
(declare-fun stack_t ((_ BitVec 256) (_ BitVec 256) (_ BitVec 256) Int (_ BitVec 6)) (_ BitVec 256))
(declare-fun stack_s ((_ BitVec 256) (_ BitVec 256) (_ BitVec 256) Int (_ BitVec 6)) (_ BitVec 256))
(declare-fun sc_s (Int) (_ BitVec 6))
(declare-fun used_gas_t ((_ BitVec 256) (_ BitVec 256) (_ BitVec 256) Int) Int)
(declare-fun used_gas_s ((_ BitVec 256) (_ BitVec 256) (_ BitVec 256) Int) Int)
(assert
 (exists ((x_0 (_ BitVec 256)) (x_1 (_ BitVec 256)) )(let (($x5140 (forall ((w (_ BitVec 256)) )(let ((?x6879 (storage_t x_0 x_1 w_2 5 w)))
 (let ((?x7401 (storage_s x_0 x_1 w_2 6 w)))
 (= ?x7401 ?x6879))))
 ))
 (let (($x886 (exc_halt_t 5)))
 (let (($x772 (exc_halt_s 6)))
 (let (($x889 (= $x772 $x886)))
 (let (($x6297 (forall ((n (_ BitVec 6)) )(let ((?x8144 (stack_t x_0 x_1 w_2 5 n)))
 (let ((?x5976 (stack_s x_0 x_1 w_2 6 n)))
 (let (($x5801 (= ?x5976 ?x8144)))
 (or $x5801 (bvsle (sc_t 5) n))))))
 ))
 (let ((?x919 (sc_t 5)))
 (let ((?x926 (sc_s 6)))
 (let (($x929 (= ?x926 ?x919)))
 (let ((?x8807 (used_gas_t x_0 x_1 w_2 0)))
 (let ((?x9169 (used_gas_s x_0 x_1 w_2 0)))
 (let (($x6083 (= ?x9169 ?x8807)))
 (let (($x7371 (forall ((w (_ BitVec 256)) )(let ((?x5125 (storage_t x_0 x_1 w_2 0 w)))
 (let ((?x8621 (storage_s x_0 x_1 w_2 0 w)))
 (= ?x8621 ?x5125))))
 ))
 (let (($x56 (exc_halt_t 0)))
 (let (($x57 (exc_halt_s 0)))
 (let (($x58 (= $x57 $x56)))
 (let (($x9336 (forall ((n (_ BitVec 6)) )(let ((?x2082 (stack_t x_0 x_1 w_2 0 n)))
 (let ((?x4269 (stack_s x_0 x_1 w_2 0 n)))
 (let (($x5344 (= ?x4269 ?x2082)))
 (let ((?x63 (sc_t 0)))
 (let (($x3267 (bvsle ?x63 n)))
 (or $x3267 $x5344)))))))
 ))
 (let ((?x63 (sc_t 0)))
 (let ((?x72 (sc_s 0)))
 (let (($x73 (= ?x72 ?x63)))
 (let (($x7802 (= $x886 (or (exc_halt_t 4) (not (bvsle (_ bv0 6) (bvadd (_ bv61 6) (sc_t 4))))))))
 (let (($x7525 (forall ((w (_ BitVec 256)) )(let ((?x9981 (storage_t x_0 x_1 w_2 4 w)))
 (let ((?x6879 (storage_t x_0 x_1 w_2 5 w)))
 (= ?x6879 ?x9981))))
 ))
 (let (($x9465 (forall ((n (_ BitVec 6)) )(let ((?x11573 (stack_t x_0 x_1 w_2 4 n)))
 (let ((?x8144 (stack_t x_0 x_1 w_2 5 n)))
 (or (bvsle (bvadd (_ bv61 6) (sc_t 4)) n) (= ?x8144 ?x11573)))))
 ))
 (let (($x9317 (= (used_gas_t x_0 x_1 w_2 5) (+ 3 (used_gas_t x_0 x_1 w_2 4)))))
 (let ((?x9204 (stack_t x_0 x_1 w_2 4 (bvadd (_ bv62 6) (sc_t 4)))))
 (let ((?x11631 (sc_t 4)))
 (let ((?x2349 (bvadd (_ bv63 6) ?x11631)))
 (let ((?x10424 (stack_t x_0 x_1 w_2 4 ?x2349)))
 (let ((?x6845 (bvadd (_ bv61 6) ?x11631)))
 (let ((?x65 (stack_t x_0 x_1 w_2 4 ?x6845)))
 (let (($x6783 (exc_halt_t 3)))
 (let (($x7659 (or $x6783 (not (= ((_ extract 6 6) (bvadd (_ bv1 7) (concat (_ bv0 1) (sc_t 3)))) (_ bv0 1))))))
 (let (($x7722 (exc_halt_t 4)))
 (let (($x9093 (= $x7722 $x7659)))
 (let (($x7221 (forall ((w (_ BitVec 256)) )(let ((?x1673 (storage_t x_0 x_1 w_2 3 w)))
 (let ((?x9981 (storage_t x_0 x_1 w_2 4 w)))
 (= ?x9981 ?x1673))))
 ))
 (let (($x1398 (forall ((n (_ BitVec 6)) )(let ((?x11401 (stack_t x_0 x_1 w_2 3 n)))
 (let ((?x11573 (stack_t x_0 x_1 w_2 4 n)))
 (let (($x7327 (= ?x11573 ?x11401)))
 (let ((?x6438 (sc_t 3)))
 (let (($x1457 (bvsle ?x6438 n)))
 (or $x1457 $x7327)))))))
 ))
 (let (($x2992 (= ?x11631 (bvadd (_ bv1 6) (sc_t 3)))))
 (let ((?x11070 (used_gas_t x_0 x_1 w_2 4)))
 (let (($x8143 (= ?x11070 (+ 3 (used_gas_t x_0 x_1 w_2 3)))))
 (let (($x8325 (not (= ((_ extract 6 6) (bvadd (_ bv1 7) (concat (_ bv0 1) (sc_t 2)))) (_ bv0 1)))))
 (let (($x5252 (exc_halt_t 2)))
 (let (($x9632 (forall ((w (_ BitVec 256)) )(let ((?x4214 (storage_t x_0 x_1 w_2 2 w)))
 (let ((?x1673 (storage_t x_0 x_1 w_2 3 w)))
 (= ?x1673 ?x4214))))
 ))
 (let (($x8427 (forall ((n (_ BitVec 6)) )(let ((?x2714 (sc_t 2)))
 (let (($x6869 (bvsle ?x2714 n)))
 (let ((?x6046 (stack_t x_0 x_1 w_2 2 n)))
 (let ((?x11401 (stack_t x_0 x_1 w_2 3 n)))
 (let (($x750 (= ?x11401 ?x6046)))
 (or $x750 $x6869)))))))
 ))
 (let ((?x6438 (sc_t 3)))
 (let (($x7159 (= ?x6438 (bvadd (_ bv1 6) (sc_t 2)))))
 (let ((?x9095 (used_gas_t x_0 x_1 w_2 3)))
 (let (($x5732 (= ?x9095 (+ 3 (used_gas_t x_0 x_1 w_2 2)))))
 (let (($x6192 (= $x5252 (or (exc_halt_t 1) (not (bvsle (_ bv0 6) (bvadd (_ bv62 6) (sc_t 1))))))))
 (let (($x11560 (forall ((w (_ BitVec 256)) )(let ((?x7149 (storage_t x_0 x_1 w_2 1 w)))
 (let ((?x4214 (storage_t x_0 x_1 w_2 2 w)))
 (= ?x4214 ?x7149))))
 ))
 (let (($x6191 (forall ((n (_ BitVec 6)) )(let ((?x8347 (sc_t 1)))
 (let ((?x6516 (bvadd (_ bv62 6) ?x8347)))
 (let (($x11603 (bvsle ?x6516 n)))
 (let ((?x8801 (stack_t x_0 x_1 w_2 1 n)))
 (let ((?x6046 (stack_t x_0 x_1 w_2 2 n)))
 (let (($x11435 (= ?x6046 ?x8801)))
 (or $x11435 $x11603))))))))
 ))
 (let ((?x9024 (used_gas_t x_0 x_1 w_2 2)))
 (let (($x11606 (= ?x9024 (+ 3 (used_gas_t x_0 x_1 w_2 1)))))
 (let ((?x8347 (sc_t 1)))
 (let ((?x401 (bvadd (_ bv63 6) ?x8347)))
 (let ((?x7455 (stack_t x_0 x_1 w_2 1 ?x401)))
 (let ((?x2714 (sc_t 2)))
 (let ((?x5743 (bvadd (_ bv63 6) ?x2714)))
 (let ((?x7279 (stack_t x_0 x_1 w_2 2 ?x5743)))
 (let (($x1107 (= ?x7279 (bvadd ?x7455 (stack_t x_0 x_1 w_2 1 (bvadd (_ bv62 6) ?x8347))))))
 (let (($x10516 (not (= ((_ extract 6 6) (bvadd (_ bv1 7) (concat (_ bv0 1) ?x63))) (_ bv0 1)))))
 (let (($x4784 (not (bvsle (_ bv0 6) (bvadd (_ bv62 6) ?x63)))))
 (let (($x3508 (exc_halt_t 1)))
 (let (($x11081 (= $x3508 (or $x56 $x4784 $x10516))))
 (let (($x6793 (forall ((w (_ BitVec 256)) )(let ((?x5125 (storage_t x_0 x_1 w_2 0 w)))
 (let ((?x7149 (storage_t x_0 x_1 w_2 1 w)))
 (= ?x7149 ?x5125))))
 ))
 (let (($x755 (forall ((n (_ BitVec 6)) )(let ((?x63 (sc_t 0)))
 (let ((?x4145 (bvadd (_ bv62 6) ?x63)))
 (let (($x7366 (bvsle ?x4145 n)))
 (let ((?x2082 (stack_t x_0 x_1 w_2 0 n)))
 (let ((?x8801 (stack_t x_0 x_1 w_2 1 n)))
 (let (($x4353 (= ?x8801 ?x2082)))
 (or $x4353 $x7366))))))))
 ))
 (let (($x859 (= ?x8347 (bvadd (_ bv1 6) ?x63))))
 (let ((?x1189 (used_gas_t x_0 x_1 w_2 1)))
 (let (($x8181 (= ?x1189 (+ 3 ?x8807))))
 (let (($x1033 (= (stack_t x_0 x_1 w_2 1 (bvadd (_ bv63 6) ?x63)) (stack_t x_0 x_1 w_2 0 (bvadd (_ bv63 6) ?x63)))))
 (let ((?x4145 (bvadd (_ bv62 6) ?x63)))
 (let ((?x2096 (stack_t x_0 x_1 w_2 0 ?x4145)))
 (let (($x904 (= $x772 (or (exc_halt_s 5) (not (bvsle (_ bv0 6) (bvadd (_ bv62 6) (sc_s 5))))))))
 (let (($x8147 (forall ((w (_ BitVec 256)) )(let ((?x8157 (storage_s x_0 x_1 w_2 5 w)))
 (let ((?x7401 (storage_s x_0 x_1 w_2 6 w)))
 (= ?x7401 ?x8157))))
 ))
 (let (($x122 (forall ((n (_ BitVec 6)) )(let ((?x1485 (stack_s x_0 x_1 w_2 5 n)))
 (let ((?x5976 (stack_s x_0 x_1 w_2 6 n)))
 (or (bvsle (bvadd (_ bv62 6) (sc_s 5)) n) (= ?x5976 ?x1485)))))
 ))
 (let (($x580 (= (used_gas_s x_0 x_1 w_2 6) (+ 3 (used_gas_s x_0 x_1 w_2 5)))))
 (let ((?x4319 (sc_s 5)))
 (let ((?x7318 (bvadd (_ bv63 6) ?x4319)))
 (let ((?x4105 (stack_s x_0 x_1 w_2 5 ?x7318)))
 (let ((?x4449 (bvadd (_ bv62 6) ?x4319)))
 (let ((?x5682 (stack_s x_0 x_1 w_2 5 ?x4449)))
 (let (($x7172 (exc_halt_s 4)))
 (let (($x5449 (not (bvsle (_ bv0 6) (bvadd (_ bv62 6) (sc_s 4))))))
 (let (($x2414 (or (not (= ((_ extract 6 6) (bvadd (_ bv1 7) (concat (_ bv0 1) (sc_s 4)))) (_ bv0 1))) $x5449 $x7172)))
 (let (($x11317 (exc_halt_s 5)))
 (let (($x7540 (forall ((w (_ BitVec 256)) )(let ((?x7861 (storage_s x_0 x_1 w_2 4 w)))
 (let ((?x8157 (storage_s x_0 x_1 w_2 5 w)))
 (= ?x8157 ?x7861))))
 ))
 (let (($x9399 (forall ((n (_ BitVec 6)) )(let ((?x5686 (stack_s x_0 x_1 w_2 4 n)))
 (let ((?x1485 (stack_s x_0 x_1 w_2 5 n)))
 (let ((?x4305 (sc_s 4)))
 (let ((?x10436 (bvadd (_ bv62 6) ?x4305)))
 (let (($x3759 (bvsle ?x10436 n)))
 (or $x3759 (= ?x1485 ?x5686))))))))
 ))
 (let ((?x313 (used_gas_s x_0 x_1 w_2 5)))
 (let (($x6139 (= ?x313 (+ 3 (used_gas_s x_0 x_1 w_2 4)))))
 (let ((?x4305 (sc_s 4)))
 (let ((?x4062 (bvadd (_ bv63 6) ?x4305)))
 (let ((?x3018 (stack_s x_0 x_1 w_2 4 ?x4062)))
 (let ((?x10436 (bvadd (_ bv62 6) ?x4305)))
 (let ((?x413 (stack_s x_0 x_1 w_2 4 ?x10436)))
 (let (($x9445 (= ?x4105 ?x413)))
 (let (($x4030 (= $x7172 (or (exc_halt_s 3) (not (bvsle (_ bv0 6) (bvadd (_ bv62 6) (sc_s 3))))))))
 (let (($x8249 (forall ((w (_ BitVec 256)) )(let ((?x6289 (storage_s x_0 x_1 w_2 3 w)))
 (let ((?x7861 (storage_s x_0 x_1 w_2 4 w)))
 (= ?x7861 ?x6289))))
 ))
 (let (($x1060 (forall ((n (_ BitVec 6)) )(let ((?x275 (sc_s 3)))
 (let ((?x10732 (bvadd (_ bv62 6) ?x275)))
 (let (($x7977 (bvsle ?x10732 n)))
 (let ((?x1040 (stack_s x_0 x_1 w_2 3 n)))
 (let ((?x5686 (stack_s x_0 x_1 w_2 4 n)))
 (or (= ?x5686 ?x1040) $x7977)))))))
 ))
 (let ((?x275 (sc_s 3)))
 (let ((?x6354 (bvadd (_ bv63 6) ?x275)))
 (let (($x3487 (= ?x4305 ?x6354)))
 (let ((?x9241 (used_gas_s x_0 x_1 w_2 4)))
 (let (($x7242 (= ?x9241 (+ 3 (used_gas_s x_0 x_1 w_2 3)))))
 (let ((?x10732 (bvadd (_ bv62 6) ?x275)))
 (let ((?x10211 (stack_s x_0 x_1 w_2 3 ?x10732)))
 (let ((?x3334 (stack_s x_0 x_1 w_2 3 ?x6354)))
 (let (($x9346 (not (bvsle (_ bv0 6) (bvadd (_ bv61 6) (sc_s 2))))))
 (let (($x247 (exc_halt_s 2)))
 (let (($x2182 (or $x247 (not (= ((_ extract 6 6) (bvadd (_ bv1 7) (concat (_ bv0 1) (sc_s 2)))) (_ bv0 1))) $x9346)))
 (let (($x292 (exc_halt_s 3)))
 (let (($x8464 (= $x292 $x2182)))
 (let (($x11313 (forall ((w (_ BitVec 256)) )(let ((?x6080 (storage_s x_0 x_1 w_2 2 w)))
 (let ((?x6289 (storage_s x_0 x_1 w_2 3 w)))
 (= ?x6289 ?x6080))))
 ))
 (let (($x7650 (forall ((n (_ BitVec 6)) )(let ((?x9811 (stack_s x_0 x_1 w_2 2 n)))
 (let ((?x1040 (stack_s x_0 x_1 w_2 3 n)))
 (let (($x11437 (= ?x1040 ?x9811)))
 (let ((?x218 (sc_s 2)))
 (let ((?x971 (bvadd (_ bv61 6) ?x218)))
 (let (($x4870 (bvsle ?x971 n)))
 (or $x4870 $x11437))))))))
 ))
 (let (($x2920 (= ?x275 (bvadd (_ bv1 6) (sc_s 2)))))
 (let ((?x8963 (used_gas_s x_0 x_1 w_2 3)))
 (let (($x9251 (= ?x8963 (+ 3 (used_gas_s x_0 x_1 w_2 2)))))
 (let ((?x218 (sc_s 2)))
 (let ((?x4506 (bvadd (_ bv63 6) ?x218)))
 (let ((?x8051 (stack_s x_0 x_1 w_2 2 ?x4506)))
 (let ((?x2342 (bvadd (_ bv62 6) ?x218)))
 (let ((?x2351 (stack_s x_0 x_1 w_2 2 ?x2342)))
 (let ((?x971 (bvadd (_ bv61 6) ?x218)))
 (let ((?x6515 (stack_s x_0 x_1 w_2 2 ?x971)))
 (let (($x7256 (= $x247 (or (exc_halt_s 1) (not (bvsle (_ bv0 6) (bvadd (_ bv62 6) (sc_s 1))))))))
 (let (($x8770 (forall ((w (_ BitVec 256)) )(let ((?x4528 (storage_s x_0 x_1 w_2 1 w)))
 (let ((?x6080 (storage_s x_0 x_1 w_2 2 w)))
 (= ?x6080 ?x4528))))
 ))
 (let (($x888 (forall ((n (_ BitVec 6)) )(let ((?x154 (sc_s 1)))
 (let ((?x3833 (bvadd (_ bv62 6) ?x154)))
 (let (($x5468 (bvsle ?x3833 n)))
 (let ((?x11082 (stack_s x_0 x_1 w_2 1 n)))
 (let ((?x9811 (stack_s x_0 x_1 w_2 2 n)))
 (let (($x4370 (= ?x9811 ?x11082)))
 (or $x4370 $x5468))))))))
 ))
 (let ((?x154 (sc_s 1)))
 (let (($x9571 (= ?x218 ?x154)))
 (let ((?x10949 (used_gas_s x_0 x_1 w_2 2)))
 (let (($x9458 (= ?x10949 (+ 3 (used_gas_s x_0 x_1 w_2 1)))))
 (let (($x189 (exc_halt_s 1)))
 (let (($x722 (= $x189 (or $x57 (not (= ((_ extract 6 6) (bvadd (_ bv1 7) (concat (_ bv0 1) ?x72))) (_ bv0 1)))))))
 (let (($x3874 (forall ((w (_ BitVec 256)) )(let ((?x8621 (storage_s x_0 x_1 w_2 0 w)))
 (let ((?x4528 (storage_s x_0 x_1 w_2 1 w)))
 (= ?x4528 ?x8621))))
 ))
 (let (($x2757 (forall ((n (_ BitVec 6)) )(let ((?x72 (sc_s 0)))
 (let (($x9281 (bvsle ?x72 n)))
 (let ((?x4269 (stack_s x_0 x_1 w_2 0 n)))
 (let ((?x11082 (stack_s x_0 x_1 w_2 1 n)))
 (let (($x3438 (= ?x11082 ?x4269)))
 (or $x3438 $x9281)))))))
 ))
 (let (($x7884 (= ?x154 (bvadd (_ bv1 6) ?x72))))
 (let ((?x10234 (used_gas_s x_0 x_1 w_2 1)))
 (let (($x8257 (= ?x10234 (+ 3 ?x9169))))
 (let (($x1757 (forall ((w (_ BitVec 256)) )(let ((?x8621 (storage_s x_0 x_1 w_2 0 w)))
 (= ?x8621 (_ bv0 256))))
 ))
 (let (($x6714 (= ?x9169 0)))
 (let (($x2751 (not $x57)))
 (let (($x11165 (= (stack_s x_0 x_1 w_2 0 (_ bv1 6)) x_1)))
 (let (($x4129 (= (stack_s x_0 x_1 w_2 0 (_ bv0 6)) x_0)))
 (let (($x9983 (= ?x72 (_ bv2 6))))
 (and $x9983 $x4129 $x11165 $x2751 $x6714 $x1757 (= (stack_s x_0 x_1 w_2 1 ?x72) w_2) $x8257 $x7884 $x2757 $x3874 $x722 (= ?x8051 (stack_s x_0 x_1 w_2 1 (bvadd (_ bv62 6) ?x154))) (= ?x2351 (stack_s x_0 x_1 w_2 1 (bvadd (_ bv63 6) ?x154))) $x9458 $x9571 $x888 $x8770 $x7256 (= ?x3334 ?x6515) (= (stack_s x_0 x_1 w_2 3 ?x971) ?x6515) (= (stack_s x_0 x_1 w_2 3 ?x2342) ?x2351) (= (stack_s x_0 x_1 w_2 3 ?x4506) ?x8051) $x9251 $x2920 $x7650 $x11313 $x8464 (= ?x3018 (bvadd ?x3334 ?x10211)) $x7242 $x3487 $x1060 $x8249 $x4030 $x9445 (= (stack_s x_0 x_1 w_2 5 ?x10436) ?x413) (= (stack_s x_0 x_1 w_2 5 ?x4062) ?x3018) $x6139 (= ?x4319 (bvadd (_ bv1 6) ?x4305)) $x9399 $x7540 (= $x11317 $x2414) (= (stack_s x_0 x_1 w_2 6 (bvadd (_ bv63 6) ?x926)) ?x5682) (= (stack_s x_0 x_1 w_2 6 (bvadd (_ bv62 6) ?x926)) ?x4105) $x580 (= ?x926 ?x4319) $x122 $x8147 $x904 (= ?x7455 ?x2096) (= (stack_t x_0 x_1 w_2 1 ?x4145) ?x2096) $x1033 $x8181 $x859 $x755 $x6793 $x11081 $x1107 $x11606 (= ?x2714 ?x401) $x6191 $x11560 $x6192 (= (stack_t x_0 x_1 w_2 3 ?x2714) w_2) $x5732 $x7159 $x8427 $x9632 (= $x6783 (or $x5252 $x8325)) (= (stack_t x_0 x_1 w_2 4 ?x6438) w_2) $x8143 $x2992 $x1398 $x7221 $x9093 (= (stack_t x_0 x_1 w_2 5 (bvadd (_ bv63 6) ?x919)) ?x65) (= (stack_t x_0 x_1 w_2 5 (bvadd (_ bv61 6) ?x919)) ?x10424) (= (stack_t x_0 x_1 w_2 5 (bvadd (_ bv62 6) ?x919)) ?x9204) $x9317 (= ?x919 ?x11631) $x9465 $x7525 $x7802 $x73 $x9336 $x58 $x7371 $x6083 (not (and $x929 $x6297 $x889 $x5140)))))))))))))))))))))))))))))))))))))))))))))))))))))))))))))))))))))))))))))))))))))))))))))))))))))))))))))))))))))))))))))))))))))))))))))))))
 )
(check-sat)
(get-proof)
